&control
  calculation  = 'relax'
  restart_mode = 'from_scratch'
  prefix       = 'Pt111-slab'
  pseudo_dir   = '/rigel/home/au2229/CHENE4880/pp'
  outdir       = '.'
/

&system
  nat         =   16
  ntyp        =   1
  ibrav       =   0
  ecutwfc     =  40
  ecutrho     =  200
  occupations = 'smearing'
  smearing    = 'gauss'
  degauss     =  0.001
  nosym       = .true.
/

&electrons
  electron_maxstep = 100
  conv_thr         =   1.0e-5
/

&ions
  ion_dynamics = 'bfgs'
/

ATOMIC_SPECIES
Pt 195.084 pt_pbe_v1.4.uspp.F.UPF

ATOMIC_POSITIONS (crystal)
Pt            0.0000000000        0.0000000000        0.0000000000    0   0   0
Pt            0.5000000000        0.5000000000        0.0000000000    0   0   0
Pt            0.5000000000        0.0000000000        0.0000000000    0   0   0
Pt            0.0000000000        0.5000000000        0.0000000000    0   0   0
Pt            0.6666667000        0.6666667000        0.1111111000    0   0   0
Pt            0.1666667000        0.6666667000        0.1111111000    0   0   0
Pt            0.6666667000        0.1666667000        0.1111111000    0   0   0
Pt            0.1666667000        0.1666667000        0.1111111000    0   0   0
Pt            0.3333355367        0.3333213016        0.2217842542
Pt            0.3333376064        0.8333426302        0.2217814121
Pt            0.8333225026        0.8333396049        0.2217850476
Pt            0.8333359193        0.3333315202        0.2217817283
Pt            0.0000059046       -0.0000034676        0.3334960676
Pt            0.4999950085        0.5000064365        0.3334954875
Pt            0.4999963521       -0.0000022277        0.3334952745
Pt            0.0000011998        0.5000001272        0.3334927430

CELL_PARAMETERS (angstrom)
     5.6065434700000      0.0000000000000      0.0000000000000
     2.8032717400000      4.8554090800000      0.0000000000000
     0.0000000000000      0.0000000000000     20.5997561100000

K_POINTS automatic
 4 4 1   0 0 0
