&control
  calculation  = 'relax'
  restart_mode = 'from_scratch'
  prefix       = 'Ni111-slab'
  pseudo_dir   = '/rigel/home/au2229/CHENE4880/pp'
  outdir       = '.'
/

&system
  nat         =   16
  ntyp        =   1
  ibrav       =   0
  ecutwfc     =  40
  ecutrho     =  200
  occupations = 'smearing'
  smearing    = 'gauss'
  degauss     =  0.02
  nosym       = .true.
/

&electrons
  mixing_beta = 0.1
  electron_maxstep = 100
  conv_thr         =   1.0e-5
/

&ions
  ion_dynamics = 'bfgs'
/

ATOMIC_SPECIES
Ni 58.6934 ni_pbe_v1.4.uspp.F.UPF

ATOMIC_POSITIONS (crystal)
Ni            0.0000000000        0.0000000000        0.0000000000    0   0   0
Ni            0.5000000000        0.5000000000        0.0000000000    0   0   0
Ni            0.5000000000        0.0000000000        0.0000000000    0   0   0
Ni           -0.0000000000        0.5000000000        0.0000000000    0   0   0
Ni            0.6666667000        0.6666667000        0.1111111000    0   0   0
Ni            0.1666667000        0.6666667000        0.1111111000    0   0   0
Ni            0.6666667000        0.1666667000        0.1111111000    0   0   0
Ni            0.1666667000        0.1666667000        0.1111111000    0   0   0
Ni            0.3333733820        0.3332937555        0.2223661615
Ni            0.3333372644        0.8333507975        0.2223749791
Ni            0.8332981448        0.8333785746        0.2223639092
Ni            0.8333241843        0.3333105435        0.2223659867
Ni           -0.0000199902        0.0000831762        0.3327652888
Ni            0.5000653848        0.4999609297        0.3327589310
Ni            0.4999672934        0.0000220634        0.3327718117
Ni           -0.0000121247        0.4999327162        0.3327625608

CELL_PARAMETERS (angstrom)
     4.9640598900000      0.0000000000000      0.0000000000000
     2.4820299400000      4.2990019700000      0.0000000000000
     0.0000000000000      0.0000000000000     18.2391206700000

K_POINTS automatic
 4 4 1   0 0 0
