&control
  calculation  = 'scf'
  restart_mode = 'from_scratch'
  prefix       = 'Ni-fcc'
  pseudo_dir   = '/rigel/home/au2229/CHENE4880/pp'
  outdir       = '.'
/

&system
  nat         =   4
  ntyp        =   1
  ibrav       =   1
  a           =   3.524
  ecutwfc     =  10
  ecutrho     =  50
  occupations = 'smearing'
  smearing    = 'gauss'
  degauss     =  0.001
/

&electrons
  electron_maxstep = 100
  conv_thr         =   1.0e-5
/

ATOMIC_SPECIES
Ni 58.6934 ni_pbe_v1.4.uspp.F.UPF

ATOMIC_POSITIONS (crystal)
Ni  0.0 0.0 0.0
Ni  0.0 0.5 0.5
Ni  0.5 0.0 0.5
Ni  0.5 0.5 0.0

K_POINTS automatic
 10 10 10   0 0 0
